p edge 196 4186
e 1 2
e 1 3
e 1 4
e 1 5
e 1 6
e 1 7
e 1 8
e 1 9
e 1 10
e 1 11
e 1 12
e 1 13
e 1 14
e 1 16
e 1 17
e 1 30
e 1 33
e 1 53
e 1 54
e 1 74
e 1 77
e 1 79
e 1 88
e 1 92
e 1 99
e 1 105
e 1 113
e 1 121
e 1 128
e 1 134
e 1 139
e 1 141
e 1 142
e 1 150
e 1 173
e 1 178
e 1 183
e 1 187
e 1 188
e 2 3
e 2 4
e 2 5
e 2 6
e 2 7
e 2 8
e 2 9
e 2 10
e 2 11
e 2 12
e 2 13
e 2 14
e 2 16
e 2 17
e 2 18
e 2 31
e 2 34
e 2 52
e 2 63
e 2 73
e 2 76
e 2 80
e 2 89
e 2 93
e 2 100
e 2 106
e 2 112
e 2 120
e 2 127
e 2 133
e 2 140
e 2 143
e 2 151
e 2 172
e 2 179
e 2 184
e 2 189
e 2 194
e 3 4
e 3 5
e 3 6
e 3 7
e 3 8
e 3 9
e 3 10
e 3 11
e 3 12
e 3 13
e 3 14
e 3 17
e 3 18
e 3 19
e 3 30
e 3 33
e 3 35
e 3 51
e 3 62
e 3 72
e 3 78
e 3 81
e 3 90
e 3 94
e 3 102
e 3 107
e 3 111
e 3 119
e 3 126
e 3 135
e 3 144
e 3 153
e 3 174
e 3 180
e 3 186
e 3 191
e 3 193
e 4 5
e 4 6
e 4 7
e 4 8
e 4 9
e 4 10
e 4 11
e 4 12
e 4 13
e 4 14
e 4 18
e 4 19
e 4 20
e 4 31
e 4 34
e 4 36
e 4 50
e 4 61
e 4 71
e 4 77
e 4 79
e 4 82
e 4 91
e 4 95
e 4 103
e 4 108
e 4 109
e 4 118
e 4 136
e 4 145
e 4 154
e 4 175
e 4 181
e 4 185
e 4 192
e 4 195
e 5 6
e 5 7
e 5 8
e 5 9
e 5 10
e 5 11
e 5 12
e 5 13
e 5 14
e 5 19
e 5 20
e 5 21
e 5 33
e 5 35
e 5 37
e 5 49
e 5 60
e 5 70
e 5 76
e 5 80
e 5 83
e 5 88
e 5 92
e 5 96
e 5 101
e 5 104
e 5 110
e 5 137
e 5 146
e 5 155
e 5 176
e 5 177
e 5 182
e 5 190
e 5 196
e 6 7
e 6 8
e 6 9
e 6 10
e 6 11
e 6 12
e 6 13
e 6 14
e 6 20
e 6 21
e 6 22
e 6 34
e 6 36
e 6 38
e 6 48
e 6 59
e 6 69
e 6 78
e 6 81
e 6 84
e 6 89
e 6 93
e 6 97
e 6 98
e 6 99
e 6 105
e 6 138
e 6 147
e 6 156
e 6 167
e 6 168
e 6 169
e 6 170
e 6 171
e 7 8
e 7 9
e 7 10
e 7 11
e 7 12
e 7 13
e 7 14
e 7 21
e 7 22
e 7 23
e 7 35
e 7 37
e 7 39
e 7 47
e 7 58
e 7 68
e 7 79
e 7 82
e 7 85
e 7 87
e 7 90
e 7 94
e 7 100
e 7 106
e 7 134
e 7 139
e 7 148
e 7 152
e 7 162
e 7 163
e 7 164
e 7 165
e 7 166
e 8 9
e 8 10
e 8 11
e 8 12
e 8 13
e 8 14
e 8 22
e 8 23
e 8 24
e 8 36
e 8 38
e 8 40
e 8 46
e 8 57
e 8 67
e 8 80
e 8 83
e 8 86
e 8 91
e 8 95
e 8 102
e 8 107
e 8 133
e 8 140
e 8 141
e 8 142
e 8 149
e 8 157
e 8 158
e 8 159
e 8 160
e 8 161
e 9 10
e 9 11
e 9 12
e 9 13
e 9 14
e 9 23
e 9 24
e 9 25
e 9 37
e 9 39
e 9 41
e 9 45
e 9 56
e 9 66
e 9 81
e 9 84
e 9 92
e 9 96
e 9 103
e 9 108
e 9 125
e 9 126
e 9 127
e 9 128
e 9 129
e 9 130
e 9 131
e 9 132
e 9 135
e 9 143
e 9 150
e 10 11
e 10 12
e 10 13
e 10 14
e 10 24
e 10 25
e 10 26
e 10 38
e 10 40
e 10 42
e 10 43
e 10 55
e 10 82
e 10 85
e 10 93
e 10 97
e 10 101
e 10 104
e 10 117
e 10 118
e 10 119
e 10 120
e 10 121
e 10 122
e 10 123
e 10 124
e 10 136
e 10 144
e 10 151
e 10 173
e 11 12
e 11 13
e 11 14
e 11 25
e 11 26
e 11 27
e 11 32
e 11 39
e 11 41
e 11 44
e 11 83
e 11 86
e 11 87
e 11 94
e 11 98
e 11 105
e 11 109
e 11 110
e 11 111
e 11 112
e 11 113
e 11 114
e 11 115
e 11 116
e 11 137
e 11 145
e 11 153
e 11 172
e 11 178
e 12 13
e 12 14
e 12 26
e 12 27
e 12 28
e 12 29
e 12 40
e 12 42
e 12 65
e 12 66
e 12 67
e 12 68
e 12 69
e 12 70
e 12 71
e 12 72
e 12 73
e 12 74
e 12 75
e 12 84
e 12 95
e 12 106
e 12 138
e 12 146
e 12 154
e 12 174
e 12 179
e 12 183
e 13 14
e 13 15
e 13 27
e 13 28
e 13 32
e 13 41
e 13 54
e 13 55
e 13 56
e 13 57
e 13 58
e 13 59
e 13 60
e 13 61
e 13 62
e 13 63
e 13 64
e 13 85
e 13 96
e 13 107
e 13 139
e 13 147
e 13 155
e 13 175
e 13 180
e 13 184
e 13 188
e 14 15
e 14 28
e 14 29
e 14 42
e 14 43
e 14 44
e 14 45
e 14 46
e 14 47
e 14 48
e 14 49
e 14 50
e 14 51
e 14 52
e 14 53
e 14 86
e 14 97
e 14 108
e 14 140
e 14 148
e 14 156
e 14 176
e 14 181
e 14 186
e 14 187
e 14 189
e 15 16
e 15 17
e 15 18
e 15 19
e 15 20
e 15 21
e 15 22
e 15 23
e 15 24
e 15 25
e 15 26
e 15 27
e 15 28
e 15 29
e 15 32
e 15 43
e 15 44
e 15 45
e 15 46
e 15 47
e 15 48
e 15 49
e 15 50
e 15 51
e 15 52
e 15 53
e 15 66
e 15 87
e 15 101
e 15 126
e 15 141
e 15 152
e 15 168
e 15 177
e 15 185
e 15 191
e 15 194
e 16 17
e 16 18
e 16 19
e 16 20
e 16 21
e 16 22
e 16 23
e 16 24
e 16 25
e 16 26
e 16 27
e 16 28
e 16 30
e 16 31
e 16 64
e 16 65
e 16 77
e 16 78
e 16 88
e 16 91
e 16 99
e 16 104
e 16 114
e 16 122
e 16 129
e 16 134
e 16 138
e 16 142
e 16 148
e 16 149
e 16 150
e 16 173
e 16 178
e 16 183
e 16 187
e 16 188
e 17 18
e 17 19
e 17 20
e 17 21
e 17 22
e 17 23
e 17 24
e 17 25
e 17 26
e 17 27
e 17 28
e 17 30
e 17 31
e 17 33
e 17 53
e 17 54
e 17 74
e 17 76
e 17 79
e 17 89
e 17 92
e 17 100
e 17 105
e 17 113
e 17 121
e 17 128
e 17 133
e 17 139
e 17 141
e 17 143
e 17 151
e 17 172
e 17 179
e 17 184
e 17 189
e 17 194
e 18 19
e 18 20
e 18 21
e 18 22
e 18 23
e 18 24
e 18 25
e 18 26
e 18 27
e 18 28
e 18 31
e 18 33
e 18 34
e 18 52
e 18 63
e 18 73
e 18 77
e 18 78
e 18 80
e 18 90
e 18 93
e 18 102
e 18 106
e 18 112
e 18 120
e 18 127
e 18 135
e 18 140
e 18 144
e 18 153
e 18 174
e 18 180
e 18 186
e 18 191
e 18 193
e 19 20
e 19 21
e 19 22
e 19 23
e 19 24
e 19 25
e 19 26
e 19 27
e 19 28
e 19 33
e 19 34
e 19 35
e 19 51
e 19 62
e 19 72
e 19 76
e 19 79
e 19 81
e 19 88
e 19 91
e 19 94
e 19 103
e 19 107
e 19 111
e 19 119
e 19 126
e 19 136
e 19 145
e 19 154
e 19 175
e 19 181
e 19 185
e 19 192
e 19 195
e 20 21
e 20 22
e 20 23
e 20 24
e 20 25
e 20 26
e 20 27
e 20 28
e 20 34
e 20 35
e 20 36
e 20 50
e 20 61
e 20 71
e 20 78
e 20 80
e 20 82
e 20 89
e 20 92
e 20 95
e 20 99
e 20 104
e 20 108
e 20 109
e 20 118
e 20 137
e 20 146
e 20 155
e 20 176
e 20 177
e 20 182
e 20 190
e 20 196
e 21 22
e 21 23
e 21 24
e 21 25
e 21 26
e 21 27
e 21 28
e 21 35
e 21 36
e 21 37
e 21 49
e 21 60
e 21 70
e 21 79
e 21 81
e 21 83
e 21 90
e 21 93
e 21 96
e 21 100
e 21 101
e 21 105
e 21 110
e 21 134
e 21 138
e 21 147
e 21 156
e 21 167
e 21 168
e 21 169
e 21 170
e 21 171
e 22 23
e 22 24
e 22 25
e 22 26
e 22 27
e 22 28
e 22 36
e 22 37
e 22 38
e 22 48
e 22 59
e 22 69
e 22 80
e 22 82
e 22 84
e 22 91
e 22 94
e 22 97
e 22 98
e 22 102
e 22 106
e 22 133
e 22 139
e 22 142
e 22 148
e 22 152
e 22 162
e 22 163
e 22 164
e 22 165
e 22 166
e 23 24
e 23 25
e 23 26
e 23 27
e 23 28
e 23 37
e 23 38
e 23 39
e 23 47
e 23 58
e 23 68
e 23 81
e 23 83
e 23 85
e 23 87
e 23 92
e 23 95
e 23 103
e 23 107
e 23 135
e 23 140
e 23 141
e 23 143
e 23 149
e 23 150
e 23 157
e 23 158
e 23 159
e 23 160
e 23 161
e 24 25
e 24 26
e 24 27
e 24 28
e 24 38
e 24 39
e 24 40
e 24 46
e 24 57
e 24 67
e 24 82
e 24 84
e 24 86
e 24 93
e 24 96
e 24 104
e 24 108
e 24 125
e 24 126
e 24 127
e 24 128
e 24 129
e 24 130
e 24 131
e 24 132
e 24 136
e 24 144
e 24 151
e 24 173
e 25 26
e 25 27
e 25 28
e 25 39
e 25 40
e 25 41
e 25 45
e 25 56
e 25 66
e 25 83
e 25 85
e 25 94
e 25 97
e 25 101
e 25 105
e 25 117
e 25 118
e 25 119
e 25 120
e 25 121
e 25 122
e 25 123
e 25 124
e 25 137
e 25 145
e 25 153
e 25 172
e 25 178
e 26 27
e 26 28
e 26 40
e 26 41
e 26 42
e 26 43
e 26 55
e 26 84
e 26 86
e 26 87
e 26 95
e 26 98
e 26 106
e 26 109
e 26 110
e 26 111
e 26 112
e 26 113
e 26 114
e 26 115
e 26 116
e 26 138
e 26 146
e 26 154
e 26 174
e 26 179
e 26 183
e 27 28
e 27 32
e 27 41
e 27 42
e 27 44
e 27 65
e 27 66
e 27 67
e 27 68
e 27 69
e 27 70
e 27 71
e 27 72
e 27 73
e 27 74
e 27 75
e 27 85
e 27 96
e 27 107
e 27 139
e 27 147
e 27 155
e 27 175
e 27 180
e 27 184
e 27 188
e 28 29
e 28 32
e 28 42
e 28 54
e 28 55
e 28 56
e 28 57
e 28 58
e 28 59
e 28 60
e 28 61
e 28 62
e 28 63
e 28 64
e 28 86
e 28 97
e 28 108
e 28 140
e 28 148
e 28 156
e 28 176
e 28 181
e 28 186
e 28 187
e 28 189
e 29 30
e 29 31
e 29 32
e 29 33
e 29 34
e 29 35
e 29 36
e 29 37
e 29 38
e 29 39
e 29 40
e 29 41
e 29 42
e 29 43
e 29 44
e 29 45
e 29 46
e 29 47
e 29 48
e 29 49
e 29 50
e 29 51
e 29 52
e 29 53
e 29 55
e 29 67
e 29 98
e 29 118
e 29 127
e 29 149
e 29 163
e 29 169
e 29 182
e 29 192
e 29 193
e 30 31
e 30 32
e 30 33
e 30 34
e 30 35
e 30 36
e 30 37
e 30 38
e 30 39
e 30 40
e 30 41
e 30 42
e 30 75
e 30 76
e 30 77
e 30 88
e 30 90
e 30 99
e 30 103
e 30 115
e 30 123
e 30 130
e 30 134
e 30 137
e 30 142
e 30 147
e 30 150
e 30 152
e 30 158
e 30 173
e 30 178
e 30 183
e 30 187
e 30 188
e 31 32
e 31 33
e 31 34
e 31 35
e 31 36
e 31 37
e 31 38
e 31 39
e 31 40
e 31 41
e 31 42
e 31 64
e 31 65
e 31 76
e 31 77
e 31 78
e 31 89
e 31 91
e 31 100
e 31 104
e 31 114
e 31 122
e 31 129
e 31 133
e 31 138
e 31 143
e 31 148
e 31 149
e 31 151
e 31 172
e 31 179
e 31 184
e 31 189
e 31 194
e 32 33
e 32 34
e 32 35
e 32 36
e 32 37
e 32 38
e 32 39
e 32 40
e 32 41
e 32 42
e 32 44
e 32 54
e 32 55
e 32 56
e 32 57
e 32 58
e 32 59
e 32 60
e 32 61
e 32 62
e 32 63
e 32 64
e 32 66
e 32 87
e 32 101
e 32 126
e 32 141
e 32 152
e 32 168
e 32 177
e 32 185
e 32 191
e 32 194
e 33 34
e 33 35
e 33 36
e 33 37
e 33 38
e 33 39
e 33 40
e 33 41
e 33 42
e 33 53
e 33 54
e 33 74
e 33 76
e 33 78
e 33 79
e 33 88
e 33 90
e 33 92
e 33 102
e 33 105
e 33 113
e 33 121
e 33 128
e 33 135
e 33 139
e 33 141
e 33 144
e 33 153
e 33 174
e 33 180
e 33 186
e 33 191
e 33 193
e 34 35
e 34 36
e 34 37
e 34 38
e 34 39
e 34 40
e 34 41
e 34 42
e 34 52
e 34 63
e 34 73
e 34 78
e 34 79
e 34 80
e 34 89
e 34 91
e 34 93
e 34 99
e 34 103
e 34 106
e 34 112
e 34 120
e 34 127
e 34 136
e 34 140
e 34 145
e 34 154
e 34 175
e 34 181
e 34 185
e 34 192
e 34 195
e 35 36
e 35 37
e 35 38
e 35 39
e 35 40
e 35 41
e 35 42
e 35 51
e 35 62
e 35 72
e 35 79
e 35 80
e 35 81
e 35 90
e 35 92
e 35 94
e 35 100
e 35 104
e 35 107
e 35 111
e 35 119
e 35 126
e 35 134
e 35 137
e 35 146
e 35 155
e 35 176
e 35 177
e 35 182
e 35 190
e 35 196
e 36 37
e 36 38
e 36 39
e 36 40
e 36 41
e 36 42
e 36 50
e 36 61
e 36 71
e 36 80
e 36 81
e 36 82
e 36 91
e 36 93
e 36 95
e 36 102
e 36 105
e 36 108
e 36 109
e 36 118
e 36 133
e 36 138
e 36 142
e 36 147
e 36 156
e 36 167
e 36 168
e 36 169
e 36 170
e 36 171
e 37 38
e 37 39
e 37 40
e 37 41
e 37 42
e 37 49
e 37 60
e 37 70
e 37 81
e 37 82
e 37 83
e 37 92
e 37 94
e 37 96
e 37 101
e 37 103
e 37 106
e 37 110
e 37 135
e 37 139
e 37 143
e 37 148
e 37 150
e 37 152
e 37 162
e 37 163
e 37 164
e 37 165
e 37 166
e 38 39
e 38 40
e 38 41
e 38 42
e 38 48
e 38 59
e 38 69
e 38 82
e 38 83
e 38 84
e 38 93
e 38 95
e 38 97
e 38 98
e 38 104
e 38 107
e 38 136
e 38 140
e 38 141
e 38 144
e 38 149
e 38 151
e 38 157
e 38 158
e 38 159
e 38 160
e 38 161
e 38 173
e 39 40
e 39 41
e 39 42
e 39 47
e 39 58
e 39 68
e 39 83
e 39 84
e 39 85
e 39 87
e 39 94
e 39 96
e 39 105
e 39 108
e 39 125
e 39 126
e 39 127
e 39 128
e 39 129
e 39 130
e 39 131
e 39 132
e 39 137
e 39 145
e 39 153
e 39 172
e 39 178
e 40 41
e 40 42
e 40 46
e 40 57
e 40 67
e 40 84
e 40 85
e 40 86
e 40 95
e 40 97
e 40 101
e 40 106
e 40 117
e 40 118
e 40 119
e 40 120
e 40 121
e 40 122
e 40 123
e 40 124
e 40 138
e 40 146
e 40 154
e 40 174
e 40 179
e 40 183
e 41 42
e 41 45
e 41 56
e 41 66
e 41 85
e 41 86
e 41 87
e 41 96
e 41 98
e 41 107
e 41 109
e 41 110
e 41 111
e 41 112
e 41 113
e 41 114
e 41 115
e 41 116
e 41 139
e 41 147
e 41 155
e 41 175
e 41 180
e 41 184
e 41 188
e 42 43
e 42 55
e 42 65
e 42 66
e 42 67
e 42 68
e 42 69
e 42 70
e 42 71
e 42 72
e 42 73
e 42 74
e 42 75
e 42 86
e 42 97
e 42 108
e 42 140
e 42 148
e 42 156
e 42 176
e 42 181
e 42 186
e 42 187
e 42 189
e 43 44
e 43 45
e 43 46
e 43 47
e 43 48
e 43 49
e 43 50
e 43 51
e 43 52
e 43 53
e 43 55
e 43 56
e 43 57
e 43 67
e 43 69
e 43 87
e 43 88
e 43 89
e 43 90
e 43 91
e 43 92
e 43 93
e 43 94
e 43 95
e 43 96
e 43 97
e 43 109
e 43 120
e 43 129
e 43 157
e 43 165
e 43 167
e 43 196
e 44 45
e 44 46
e 44 47
e 44 48
e 44 49
e 44 50
e 44 51
e 44 52
e 44 53
e 44 55
e 44 56
e 44 66
e 44 68
e 44 76
e 44 77
e 44 78
e 44 79
e 44 80
e 44 81
e 44 82
e 44 83
e 44 84
e 44 85
e 44 86
e 44 110
e 44 119
e 44 128
e 44 158
e 44 164
e 44 170
e 44 190
e 44 195
e 45 46
e 45 47
e 45 48
e 45 49
e 45 50
e 45 51
e 45 52
e 45 53
e 45 56
e 45 57
e 45 58
e 45 66
e 45 68
e 45 70
e 45 98
e 45 99
e 45 100
e 45 101
e 45 102
e 45 103
e 45 104
e 45 105
e 45 106
e 45 107
e 45 108
e 45 111
e 45 121
e 45 130
e 45 159
e 45 162
e 45 171
e 46 47
e 46 48
e 46 49
e 46 50
e 46 51
e 46 52
e 46 53
e 46 57
e 46 58
e 46 59
e 46 67
e 46 69
e 46 71
e 46 86
e 46 110
e 46 112
e 46 118
e 46 122
e 46 126
e 46 131
e 46 133
e 46 134
e 46 135
e 46 136
e 46 137
e 46 138
e 46 139
e 46 140
e 46 160
e 46 166
e 47 48
e 47 49
e 47 50
e 47 51
e 47 52
e 47 53
e 47 58
e 47 59
e 47 60
e 47 68
e 47 70
e 47 72
e 47 85
e 47 87
e 47 109
e 47 113
e 47 119
e 47 123
e 47 125
e 47 127
e 47 141
e 47 142
e 47 143
e 47 144
e 47 145
e 47 146
e 47 147
e 47 148
e 47 161
e 48 49
e 48 50
e 48 51
e 48 52
e 48 53
e 48 59
e 48 60
e 48 61
e 48 69
e 48 71
e 48 73
e 48 84
e 48 97
e 48 98
e 48 111
e 48 114
e 48 117
e 48 120
e 48 128
e 48 132
e 48 149
e 48 150
e 48 151
e 48 152
e 48 153
e 48 154
e 48 155
e 48 156
e 49 50
e 49 51
e 49 52
e 49 53
e 49 60
e 49 61
e 49 62
e 49 70
e 49 72
e 49 74
e 49 83
e 49 96
e 49 101
e 49 110
e 49 112
e 49 115
e 49 121
e 49 124
e 49 129
e 49 158
e 49 163
e 49 168
e 49 172
e 49 173
e 49 174
e 49 175
e 49 176
e 50 51
e 50 52
e 50 53
e 50 61
e 50 62
e 50 63
e 50 65
e 50 71
e 50 73
e 50 82
e 50 95
e 50 108
e 50 109
e 50 113
e 50 116
e 50 118
e 50 122
e 50 130
e 50 157
e 50 164
e 50 169
e 50 177
e 50 178
e 50 179
e 50 180
e 50 181
e 51 52
e 51 53
e 51 54
e 51 62
e 51 63
e 51 72
e 51 74
e 51 75
e 51 81
e 51 94
e 51 107
e 51 111
e 51 114
e 51 119
e 51 123
e 51 126
e 51 131
e 51 159
e 51 165
e 51 170
e 51 182
e 51 183
e 51 184
e 51 185
e 51 186
e 52 53
e 52 54
e 52 63
e 52 64
e 52 65
e 52 73
e 52 80
e 52 93
e 52 106
e 52 112
e 52 115
e 52 117
e 52 120
e 52 125
e 52 127
e 52 140
e 52 160
e 52 162
e 52 167
e 52 188
e 52 189
e 52 190
e 52 191
e 52 192
e 53 54
e 53 64
e 53 74
e 53 75
e 53 79
e 53 92
e 53 105
e 53 113
e 53 116
e 53 121
e 53 124
e 53 128
e 53 132
e 53 139
e 53 141
e 53 161
e 53 166
e 53 171
e 53 187
e 53 193
e 53 194
e 53 195
e 53 196
e 54 55
e 54 56
e 54 57
e 54 58
e 54 59
e 54 60
e 54 61
e 54 62
e 54 63
e 54 64
e 54 65
e 54 74
e 54 75
e 54 79
e 54 92
e 54 105
e 54 113
e 54 115
e 54 117
e 54 121
e 54 125
e 54 128
e 54 139
e 54 141
e 54 160
e 54 162
e 54 167
e 54 188
e 54 189
e 54 190
e 54 191
e 54 192
e 55 56
e 55 57
e 55 58
e 55 59
e 55 60
e 55 61
e 55 62
e 55 63
e 55 64
e 55 66
e 55 67
e 55 76
e 55 77
e 55 78
e 55 79
e 55 80
e 55 81
e 55 82
e 55 83
e 55 84
e 55 85
e 55 86
e 55 98
e 55 118
e 55 127
e 55 149
e 55 163
e 55 169
e 55 182
e 55 192
e 55 193
e 56 57
e 56 58
e 56 59
e 56 60
e 56 61
e 56 62
e 56 63
e 56 64
e 56 66
e 56 67
e 56 68
e 56 87
e 56 88
e 56 89
e 56 90
e 56 91
e 56 92
e 56 93
e 56 94
e 56 95
e 56 96
e 56 97
e 56 110
e 56 119
e 56 128
e 56 158
e 56 164
e 56 170
e 56 190
e 56 195
e 57 58
e 57 59
e 57 60
e 57 61
e 57 62
e 57 63
e 57 64
e 57 67
e 57 68
e 57 69
e 57 86
e 57 98
e 57 99
e 57 100
e 57 101
e 57 102
e 57 103
e 57 104
e 57 105
e 57 106
e 57 107
e 57 108
e 57 109
e 57 120
e 57 129
e 57 157
e 57 165
e 57 167
e 57 196
e 58 59
e 58 60
e 58 61
e 58 62
e 58 63
e 58 64
e 58 68
e 58 69
e 58 70
e 58 85
e 58 87
e 58 110
e 58 111
e 58 118
e 58 121
e 58 126
e 58 130
e 58 133
e 58 134
e 58 135
e 58 136
e 58 137
e 58 138
e 58 139
e 58 140
e 58 159
e 58 162
e 58 171
e 59 60
e 59 61
e 59 62
e 59 63
e 59 64
e 59 69
e 59 70
e 59 71
e 59 84
e 59 97
e 59 98
e 59 109
e 59 112
e 59 119
e 59 122
e 59 127
e 59 131
e 59 141
e 59 142
e 59 143
e 59 144
e 59 145
e 59 146
e 59 147
e 59 148
e 59 160
e 59 166
e 60 61
e 60 62
e 60 63
e 60 64
e 60 70
e 60 71
e 60 72
e 60 83
e 60 96
e 60 101
e 60 110
e 60 111
e 60 113
e 60 120
e 60 123
e 60 125
e 60 128
e 60 149
e 60 150
e 60 151
e 60 152
e 60 153
e 60 154
e 60 155
e 60 156
e 60 161
e 61 62
e 61 63
e 61 64
e 61 71
e 61 72
e 61 73
e 61 82
e 61 95
e 61 108
e 61 109
e 61 112
e 61 114
e 61 117
e 61 118
e 61 121
e 61 129
e 61 132
e 61 158
e 61 163
e 61 168
e 61 172
e 61 173
e 61 174
e 61 175
e 61 176
e 62 63
e 62 64
e 62 72
e 62 73
e 62 74
e 62 81
e 62 94
e 62 107
e 62 111
e 62 113
e 62 115
e 62 119
e 62 122
e 62 124
e 62 126
e 62 130
e 62 157
e 62 164
e 62 169
e 62 177
e 62 178
e 62 179
e 62 180
e 62 181
e 63 64
e 63 65
e 63 73
e 63 74
e 63 80
e 63 93
e 63 106
e 63 112
e 63 114
e 63 116
e 63 120
e 63 123
e 63 127
e 63 131
e 63 140
e 63 159
e 63 165
e 63 170
e 63 182
e 63 183
e 63 184
e 63 185
e 63 186
e 64 65
e 64 75
e 64 78
e 64 91
e 64 104
e 64 114
e 64 116
e 64 122
e 64 124
e 64 129
e 64 132
e 64 138
e 64 148
e 64 149
e 64 161
e 64 166
e 64 171
e 64 187
e 64 193
e 64 194
e 64 195
e 64 196
e 65 66
e 65 67
e 65 68
e 65 69
e 65 70
e 65 71
e 65 72
e 65 73
e 65 74
e 65 75
e 65 78
e 65 91
e 65 104
e 65 114
e 65 115
e 65 116
e 65 117
e 65 122
e 65 125
e 65 129
e 65 138
e 65 148
e 65 149
e 65 160
e 65 162
e 65 167
e 65 188
e 65 189
e 65 190
e 65 191
e 65 192
e 66 67
e 66 68
e 66 69
e 66 70
e 66 71
e 66 72
e 66 73
e 66 74
e 66 75
e 66 76
e 66 77
e 66 78
e 66 79
e 66 80
e 66 81
e 66 82
e 66 83
e 66 84
e 66 85
e 66 86
e 66 87
e 66 101
e 66 126
e 66 141
e 66 152
e 66 168
e 66 177
e 66 185
e 66 191
e 66 194
e 67 68
e 67 69
e 67 70
e 67 71
e 67 72
e 67 73
e 67 74
e 67 75
e 67 86
e 67 87
e 67 88
e 67 89
e 67 90
e 67 91
e 67 92
e 67 93
e 67 94
e 67 95
e 67 96
e 67 97
e 67 98
e 67 118
e 67 127
e 67 149
e 67 163
e 67 169
e 67 182
e 67 192
e 67 193
e 68 69
e 68 70
e 68 71
e 68 72
e 68 73
e 68 74
e 68 75
e 68 85
e 68 87
e 68 98
e 68 99
e 68 100
e 68 101
e 68 102
e 68 103
e 68 104
e 68 105
e 68 106
e 68 107
e 68 108
e 68 110
e 68 119
e 68 128
e 68 158
e 68 164
e 68 170
e 68 190
e 68 195
e 69 70
e 69 71
e 69 72
e 69 73
e 69 74
e 69 75
e 69 84
e 69 97
e 69 98
e 69 109
e 69 110
e 69 118
e 69 120
e 69 126
e 69 129
e 69 133
e 69 134
e 69 135
e 69 136
e 69 137
e 69 138
e 69 139
e 69 140
e 69 157
e 69 165
e 69 167
e 69 196
e 70 71
e 70 72
e 70 73
e 70 74
e 70 75
e 70 83
e 70 96
e 70 101
e 70 109
e 70 110
e 70 111
e 70 119
e 70 121
e 70 127
e 70 130
e 70 141
e 70 142
e 70 143
e 70 144
e 70 145
e 70 146
e 70 147
e 70 148
e 70 159
e 70 162
e 70 171
e 71 72
e 71 73
e 71 74
e 71 75
e 71 82
e 71 95
e 71 108
e 71 109
e 71 111
e 71 112
e 71 118
e 71 120
e 71 122
e 71 128
e 71 131
e 71 149
e 71 150
e 71 151
e 71 152
e 71 153
e 71 154
e 71 155
e 71 156
e 71 160
e 71 166
e 72 73
e 72 74
e 72 75
e 72 81
e 72 94
e 72 107
e 72 111
e 72 112
e 72 113
e 72 119
e 72 121
e 72 123
e 72 125
e 72 126
e 72 129
e 72 158
e 72 161
e 72 163
e 72 168
e 72 172
e 72 173
e 72 174
e 72 175
e 72 176
e 73 74
e 73 75
e 73 80
e 73 93
e 73 106
e 73 112
e 73 113
e 73 114
e 73 117
e 73 120
e 73 122
e 73 127
e 73 130
e 73 132
e 73 140
e 73 157
e 73 164
e 73 169
e 73 177
e 73 178
e 73 179
e 73 180
e 73 181
e 74 75
e 74 79
e 74 92
e 74 105
e 74 113
e 74 114
e 74 115
e 74 121
e 74 123
e 74 124
e 74 128
e 74 131
e 74 139
e 74 141
e 74 159
e 74 165
e 74 170
e 74 182
e 74 183
e 74 184
e 74 185
e 74 186
e 75 76
e 75 90
e 75 103
e 75 115
e 75 116
e 75 123
e 75 124
e 75 130
e 75 132
e 75 137
e 75 147
e 75 152
e 75 158
e 75 161
e 75 166
e 75 171
e 75 187
e 75 193
e 75 194
e 75 195
e 75 196
e 76 77
e 76 78
e 76 79
e 76 80
e 76 81
e 76 82
e 76 83
e 76 84
e 76 85
e 76 86
e 76 88
e 76 89
e 76 90
e 76 100
e 76 103
e 76 115
e 76 123
e 76 130
e 76 133
e 76 137
e 76 143
e 76 147
e 76 151
e 76 152
e 76 158
e 76 172
e 76 179
e 76 184
e 76 189
e 76 194
e 77 78
e 77 79
e 77 80
e 77 81
e 77 82
e 77 83
e 77 84
e 77 85
e 77 86
e 77 88
e 77 89
e 77 99
e 77 102
e 77 116
e 77 117
e 77 131
e 77 134
e 77 136
e 77 142
e 77 146
e 77 150
e 77 156
e 77 157
e 77 163
e 77 173
e 77 178
e 77 183
e 77 187
e 77 188
e 78 79
e 78 80
e 78 81
e 78 82
e 78 83
e 78 84
e 78 85
e 78 86
e 78 89
e 78 90
e 78 91
e 78 99
e 78 102
e 78 104
e 78 114
e 78 122
e 78 129
e 78 135
e 78 138
e 78 144
e 78 148
e 78 149
e 78 153
e 78 174
e 78 180
e 78 186
e 78 191
e 78 193
e 79 80
e 79 81
e 79 82
e 79 83
e 79 84
e 79 85
e 79 86
e 79 90
e 79 91
e 79 92
e 79 100
e 79 103
e 79 105
e 79 113
e 79 121
e 79 128
e 79 134
e 79 136
e 79 139
e 79 141
e 79 145
e 79 154
e 79 175
e 79 181
e 79 185
e 79 192
e 79 195
e 80 81
e 80 82
e 80 83
e 80 84
e 80 85
e 80 86
e 80 91
e 80 92
e 80 93
e 80 102
e 80 104
e 80 106
e 80 112
e 80 120
e 80 127
e 80 133
e 80 137
e 80 140
e 80 142
e 80 146
e 80 155
e 80 176
e 80 177
e 80 182
e 80 190
e 80 196
e 81 82
e 81 83
e 81 84
e 81 85
e 81 86
e 81 92
e 81 93
e 81 94
e 81 103
e 81 105
e 81 107
e 81 111
e 81 119
e 81 126
e 81 135
e 81 138
e 81 143
e 81 147
e 81 150
e 81 156
e 81 167
e 81 168
e 81 169
e 81 170
e 81 171
e 82 83
e 82 84
e 82 85
e 82 86
e 82 93
e 82 94
e 82 95
e 82 104
e 82 106
e 82 108
e 82 109
e 82 118
e 82 136
e 82 139
e 82 144
e 82 148
e 82 151
e 82 152
e 82 162
e 82 163
e 82 164
e 82 165
e 82 166
e 82 173
e 83 84
e 83 85
e 83 86
e 83 94
e 83 95
e 83 96
e 83 101
e 83 105
e 83 107
e 83 110
e 83 137
e 83 140
e 83 141
e 83 145
e 83 149
e 83 153
e 83 157
e 83 158
e 83 159
e 83 160
e 83 161
e 83 172
e 83 178
e 84 85
e 84 86
e 84 95
e 84 96
e 84 97
e 84 98
e 84 106
e 84 108
e 84 125
e 84 126
e 84 127
e 84 128
e 84 129
e 84 130
e 84 131
e 84 132
e 84 138
e 84 146
e 84 154
e 84 174
e 84 179
e 84 183
e 85 86
e 85 87
e 85 96
e 85 97
e 85 101
e 85 107
e 85 117
e 85 118
e 85 119
e 85 120
e 85 121
e 85 122
e 85 123
e 85 124
e 85 139
e 85 147
e 85 155
e 85 175
e 85 180
e 85 184
e 85 188
e 86 87
e 86 97
e 86 98
e 86 108
e 86 109
e 86 110
e 86 111
e 86 112
e 86 113
e 86 114
e 86 115
e 86 116
e 86 140
e 86 148
e 86 156
e 86 176
e 86 181
e 86 186
e 86 187
e 86 189
e 87 88
e 87 89
e 87 90
e 87 91
e 87 92
e 87 93
e 87 94
e 87 95
e 87 96
e 87 97
e 87 98
e 87 101
e 87 109
e 87 110
e 87 111
e 87 112
e 87 113
e 87 114
e 87 115
e 87 116
e 87 126
e 87 141
e 87 152
e 87 168
e 87 177
e 87 185
e 87 191
e 87 194
e 88 89
e 88 90
e 88 91
e 88 92
e 88 93
e 88 94
e 88 95
e 88 96
e 88 97
e 88 99
e 88 100
e 88 124
e 88 125
e 88 134
e 88 135
e 88 142
e 88 145
e 88 150
e 88 155
e 88 159
e 88 164
e 88 168
e 88 173
e 88 178
e 88 183
e 88 187
e 88 188
e 89 90
e 89 91
e 89 92
e 89 93
e 89 94
e 89 95
e 89 96
e 89 97
e 89 99
e 89 100
e 89 102
e 89 116
e 89 117
e 89 131
e 89 133
e 89 136
e 89 143
e 89 146
e 89 151
e 89 156
e 89 157
e 89 163
e 89 172
e 89 179
e 89 184
e 89 189
e 89 194
e 90 91
e 90 92
e 90 93
e 90 94
e 90 95
e 90 96
e 90 97
e 90 100
e 90 102
e 90 103
e 90 115
e 90 123
e 90 130
e 90 134
e 90 135
e 90 137
e 90 144
e 90 147
e 90 152
e 90 153
e 90 158
e 90 174
e 90 180
e 90 186
e 90 191
e 90 193
e 91 92
e 91 93
e 91 94
e 91 95
e 91 96
e 91 97
e 91 102
e 91 103
e 91 104
e 91 114
e 91 122
e 91 129
e 91 133
e 91 136
e 91 138
e 91 142
e 91 145
e 91 148
e 91 149
e 91 154
e 91 175
e 91 181
e 91 185
e 91 192
e 91 195
e 92 93
e 92 94
e 92 95
e 92 96
e 92 97
e 92 103
e 92 104
e 92 105
e 92 113
e 92 121
e 92 128
e 92 135
e 92 137
e 92 139
e 92 141
e 92 143
e 92 146
e 92 150
e 92 155
e 92 176
e 92 177
e 92 182
e 92 190
e 92 196
e 93 94
e 93 95
e 93 96
e 93 97
e 93 104
e 93 105
e 93 106
e 93 112
e 93 120
e 93 127
e 93 136
e 93 138
e 93 140
e 93 144
e 93 147
e 93 151
e 93 156
e 93 167
e 93 168
e 93 169
e 93 170
e 93 171
e 93 173
e 94 95
e 94 96
e 94 97
e 94 105
e 94 106
e 94 107
e 94 111
e 94 119
e 94 126
e 94 137
e 94 139
e 94 145
e 94 148
e 94 152
e 94 153
e 94 162
e 94 163
e 94 164
e 94 165
e 94 166
e 94 172
e 94 178
e 95 96
e 95 97
e 95 106
e 95 107
e 95 108
e 95 109
e 95 118
e 95 138
e 95 140
e 95 141
e 95 146
e 95 149
e 95 154
e 95 157
e 95 158
e 95 159
e 95 160
e 95 161
e 95 174
e 95 179
e 95 183
e 96 97
e 96 101
e 96 107
e 96 108
e 96 110
e 96 125
e 96 126
e 96 127
e 96 128
e 96 129
e 96 130
e 96 131
e 96 132
e 96 139
e 96 147
e 96 155
e 96 175
e 96 180
e 96 184
e 96 188
e 97 98
e 97 101
e 97 108
e 97 117
e 97 118
e 97 119
e 97 120
e 97 121
e 97 122
e 97 123
e 97 124
e 97 140
e 97 148
e 97 156
e 97 176
e 97 181
e 97 186
e 97 187
e 97 189
e 98 99
e 98 100
e 98 101
e 98 102
e 98 103
e 98 104
e 98 105
e 98 106
e 98 107
e 98 108
e 98 109
e 98 110
e 98 111
e 98 112
e 98 113
e 98 114
e 98 115
e 98 116
e 98 118
e 98 127
e 98 149
e 98 163
e 98 169
e 98 182
e 98 192
e 98 193
e 99 100
e 99 101
e 99 102
e 99 103
e 99 104
e 99 105
e 99 106
e 99 107
e 99 108
e 99 132
e 99 133
e 99 134
e 99 142
e 99 144
e 99 150
e 99 154
e 99 160
e 99 165
e 99 169
e 99 173
e 99 176
e 99 178
e 99 183
e 99 187
e 99 188
e 100 101
e 100 102
e 100 103
e 100 104
e 100 105
e 100 106
e 100 107
e 100 108
e 100 124
e 100 125
e 100 133
e 100 134
e 100 135
e 100 143
e 100 145
e 100 151
e 100 155
e 100 159
e 100 164
e 100 168
e 100 172
e 100 179
e 100 184
e 100 189
e 100 194
e 101 102
e 101 103
e 101 104
e 101 105
e 101 106
e 101 107
e 101 108
e 101 110
e 101 117
e 101 118
e 101 119
e 101 120
e 101 121
e 101 122
e 101 123
e 101 124
e 101 126
e 101 141
e 101 152
e 101 168
e 101 177
e 101 185
e 101 191
e 101 194
e 102 103
e 102 104
e 102 105
e 102 106
e 102 107
e 102 108
e 102 116
e 102 117
e 102 131
e 102 133
e 102 135
e 102 136
e 102 142
e 102 144
e 102 146
e 102 153
e 102 156
e 102 157
e 102 163
e 102 174
e 102 180
e 102 186
e 102 191
e 102 193
e 103 104
e 103 105
e 103 106
e 103 107
e 103 108
e 103 115
e 103 123
e 103 130
e 103 135
e 103 136
e 103 137
e 103 143
e 103 145
e 103 147
e 103 150
e 103 152
e 103 154
e 103 158
e 103 175
e 103 181
e 103 185
e 103 192
e 103 195
e 104 105
e 104 106
e 104 107
e 104 108
e 104 114
e 104 122
e 104 129
e 104 136
e 104 137
e 104 138
e 104 144
e 104 146
e 104 148
e 104 149
e 104 151
e 104 155
e 104 173
e 104 176
e 104 177
e 104 182
e 104 190
e 104 196
e 105 106
e 105 107
e 105 108
e 105 113
e 105 121
e 105 128
e 105 137
e 105 138
e 105 139
e 105 141
e 105 145
e 105 147
e 105 153
e 105 156
e 105 167
e 105 168
e 105 169
e 105 170
e 105 171
e 105 172
e 105 178
e 106 107
e 106 108
e 106 112
e 106 120
e 106 127
e 106 138
e 106 139
e 106 140
e 106 146
e 106 148
e 106 152
e 106 154
e 106 162
e 106 163
e 106 164
e 106 165
e 106 166
e 106 174
e 106 179
e 106 183
e 107 108
e 107 111
e 107 119
e 107 126
e 107 139
e 107 140
e 107 141
e 107 147
e 107 149
e 107 155
e 107 157
e 107 158
e 107 159
e 107 160
e 107 161
e 107 175
e 107 180
e 107 184
e 107 188
e 108 109
e 108 118
e 108 125
e 108 126
e 108 127
e 108 128
e 108 129
e 108 130
e 108 131
e 108 132
e 108 140
e 108 148
e 108 156
e 108 176
e 108 181
e 108 186
e 108 187
e 108 189
e 109 110
e 109 111
e 109 112
e 109 113
e 109 114
e 109 115
e 109 116
e 109 118
e 109 119
e 109 120
e 109 127
e 109 129
e 109 141
e 109 142
e 109 143
e 109 144
e 109 145
e 109 146
e 109 147
e 109 148
e 109 157
e 109 165
e 109 167
e 109 196
e 110 111
e 110 112
e 110 113
e 110 114
e 110 115
e 110 116
e 110 118
e 110 119
e 110 126
e 110 128
e 110 133
e 110 134
e 110 135
e 110 136
e 110 137
e 110 138
e 110 139
e 110 140
e 110 158
e 110 164
e 110 170
e 110 190
e 110 195
e 111 112
e 111 113
e 111 114
e 111 115
e 111 116
e 111 119
e 111 120
e 111 121
e 111 126
e 111 128
e 111 130
e 111 149
e 111 150
e 111 151
e 111 152
e 111 153
e 111 154
e 111 155
e 111 156
e 111 159
e 111 162
e 111 171
e 112 113
e 112 114
e 112 115
e 112 116
e 112 120
e 112 121
e 112 122
e 112 127
e 112 129
e 112 131
e 112 140
e 112 158
e 112 160
e 112 163
e 112 166
e 112 168
e 112 172
e 112 173
e 112 174
e 112 175
e 112 176
e 113 114
e 113 115
e 113 116
e 113 121
e 113 122
e 113 123
e 113 125
e 113 128
e 113 130
e 113 139
e 113 141
e 113 157
e 113 161
e 113 164
e 113 169
e 113 177
e 113 178
e 113 179
e 113 180
e 113 181
e 114 115
e 114 116
e 114 117
e 114 122
e 114 123
e 114 129
e 114 131
e 114 132
e 114 138
e 114 148
e 114 149
e 114 159
e 114 165
e 114 170
e 114 182
e 114 183
e 114 184
e 114 185
e 114 186
e 115 116
e 115 117
e 115 123
e 115 124
e 115 125
e 115 130
e 115 137
e 115 147
e 115 152
e 115 158
e 115 160
e 115 162
e 115 167
e 115 188
e 115 189
e 115 190
e 115 191
e 115 192
e 116 117
e 116 124
e 116 131
e 116 132
e 116 136
e 116 146
e 116 156
e 116 157
e 116 161
e 116 163
e 116 166
e 116 171
e 116 187
e 116 193
e 116 194
e 116 195
e 116 196
e 117 118
e 117 119
e 117 120
e 117 121
e 117 122
e 117 123
e 117 124
e 117 125
e 117 131
e 117 132
e 117 136
e 117 146
e 117 156
e 117 157
e 117 160
e 117 162
e 117 163
e 117 167
e 117 188
e 117 189
e 117 190
e 117 191
e 117 192
e 118 119
e 118 120
e 118 121
e 118 122
e 118 123
e 118 124
e 118 126
e 118 127
e 118 133
e 118 134
e 118 135
e 118 136
e 118 137
e 118 138
e 118 139
e 118 140
e 118 149
e 118 163
e 118 169
e 118 182
e 118 192
e 118 193
e 119 120
e 119 121
e 119 122
e 119 123
e 119 124
e 119 126
e 119 127
e 119 128
e 119 141
e 119 142
e 119 143
e 119 144
e 119 145
e 119 146
e 119 147
e 119 148
e 119 158
e 119 164
e 119 170
e 119 190
e 119 195
e 120 121
e 120 122
e 120 123
e 120 124
e 120 127
e 120 128
e 120 129
e 120 140
e 120 149
e 120 150
e 120 151
e 120 152
e 120 153
e 120 154
e 120 155
e 120 156
e 120 157
e 120 165
e 120 167
e 120 196
e 121 122
e 121 123
e 121 124
e 121 128
e 121 129
e 121 130
e 121 139
e 121 141
e 121 158
e 121 159
e 121 162
e 121 163
e 121 168
e 121 171
e 121 172
e 121 173
e 121 174
e 121 175
e 121 176
e 122 123
e 122 124
e 122 129
e 122 130
e 122 131
e 122 138
e 122 148
e 122 149
e 122 157
e 122 160
e 122 164
e 122 166
e 122 169
e 122 177
e 122 178
e 122 179
e 122 180
e 122 181
e 123 124
e 123 125
e 123 130
e 123 131
e 123 137
e 123 147
e 123 152
e 123 158
e 123 159
e 123 161
e 123 165
e 123 170
e 123 182
e 123 183
e 123 184
e 123 185
e 123 186
e 124 125
e 124 132
e 124 135
e 124 145
e 124 155
e 124 159
e 124 161
e 124 164
e 124 166
e 124 168
e 124 171
e 124 187
e 124 193
e 124 194
e 124 195
e 124 196
e 125 126
e 125 127
e 125 128
e 125 129
e 125 130
e 125 131
e 125 132
e 125 135
e 125 145
e 125 155
e 125 159
e 125 160
e 125 161
e 125 162
e 125 164
e 125 167
e 125 168
e 125 188
e 125 189
e 125 190
e 125 191
e 125 192
e 126 127
e 126 128
e 126 129
e 126 130
e 126 131
e 126 132
e 126 133
e 126 134
e 126 135
e 126 136
e 126 137
e 126 138
e 126 139
e 126 140
e 126 141
e 126 152
e 126 168
e 126 177
e 126 185
e 126 191
e 126 194
e 127 128
e 127 129
e 127 130
e 127 131
e 127 132
e 127 140
e 127 141
e 127 142
e 127 143
e 127 144
e 127 145
e 127 146
e 127 147
e 127 148
e 127 149
e 127 163
e 127 169
e 127 182
e 127 192
e 127 193
e 128 129
e 128 130
e 128 131
e 128 132
e 128 139
e 128 141
e 128 149
e 128 150
e 128 151
e 128 152
e 128 153
e 128 154
e 128 155
e 128 156
e 128 158
e 128 164
e 128 170
e 128 190
e 128 195
e 129 130
e 129 131
e 129 132
e 129 138
e 129 148
e 129 149
e 129 157
e 129 158
e 129 163
e 129 165
e 129 167
e 129 168
e 129 172
e 129 173
e 129 174
e 129 175
e 129 176
e 129 196
e 130 131
e 130 132
e 130 137
e 130 147
e 130 152
e 130 157
e 130 158
e 130 159
e 130 162
e 130 164
e 130 169
e 130 171
e 130 177
e 130 178
e 130 179
e 130 180
e 130 181
e 131 132
e 131 136
e 131 146
e 131 156
e 131 157
e 131 159
e 131 160
e 131 163
e 131 165
e 131 166
e 131 170
e 131 182
e 131 183
e 131 184
e 131 185
e 131 186
e 132 133
e 132 144
e 132 154
e 132 160
e 132 161
e 132 165
e 132 166
e 132 169
e 132 171
e 132 176
e 132 187
e 132 193
e 132 194
e 132 195
e 132 196
e 133 134
e 133 135
e 133 136
e 133 137
e 133 138
e 133 139
e 133 140
e 133 142
e 133 143
e 133 144
e 133 151
e 133 154
e 133 160
e 133 165
e 133 169
e 133 172
e 133 176
e 133 179
e 133 184
e 133 189
e 133 194
e 134 135
e 134 136
e 134 137
e 134 138
e 134 139
e 134 140
e 134 142
e 134 143
e 134 150
e 134 153
e 134 161
e 134 162
e 134 170
e 134 173
e 134 175
e 134 177
e 134 178
e 134 183
e 134 187
e 134 188
e 135 136
e 135 137
e 135 138
e 135 139
e 135 140
e 135 143
e 135 144
e 135 145
e 135 150
e 135 153
e 135 155
e 135 159
e 135 164
e 135 168
e 135 174
e 135 180
e 135 186
e 135 191
e 135 193
e 136 137
e 136 138
e 136 139
e 136 140
e 136 144
e 136 145
e 136 146
e 136 151
e 136 154
e 136 156
e 136 157
e 136 163
e 136 173
e 136 175
e 136 181
e 136 185
e 136 192
e 136 195
e 137 138
e 137 139
e 137 140
e 137 145
e 137 146
e 137 147
e 137 152
e 137 153
e 137 155
e 137 158
e 137 172
e 137 176
e 137 177
e 137 178
e 137 182
e 137 190
e 137 196
e 138 139
e 138 140
e 138 146
e 138 147
e 138 148
e 138 149
e 138 154
e 138 156
e 138 167
e 138 168
e 138 169
e 138 170
e 138 171
e 138 174
e 138 179
e 138 183
e 139 140
e 139 141
e 139 147
e 139 148
e 139 152
e 139 155
e 139 162
e 139 163
e 139 164
e 139 165
e 139 166
e 139 175
e 139 180
e 139 184
e 139 188
e 140 141
e 140 148
e 140 149
e 140 156
e 140 157
e 140 158
e 140 159
e 140 160
e 140 161
e 140 176
e 140 181
e 140 186
e 140 187
e 140 189
e 141 142
e 141 143
e 141 144
e 141 145
e 141 146
e 141 147
e 141 148
e 141 149
e 141 152
e 141 157
e 141 158
e 141 159
e 141 160
e 141 161
e 141 168
e 141 177
e 141 185
e 141 191
e 141 194
e 142 143
e 142 144
e 142 145
e 142 146
e 142 147
e 142 148
e 142 150
e 142 151
e 142 166
e 142 167
e 142 173
e 142 174
e 142 178
e 142 181
e 142 182
e 142 183
e 142 187
e 142 188
e 143 144
e 143 145
e 143 146
e 143 147
e 143 148
e 143 150
e 143 151
e 143 153
e 143 161
e 143 162
e 143 170
e 143 172
e 143 175
e 143 177
e 143 179
e 143 184
e 143 189
e 143 194
e 144 145
e 144 146
e 144 147
e 144 148
e 144 151
e 144 153
e 144 154
e 144 160
e 144 165
e 144 169
e 144 173
e 144 174
e 144 176
e 144 180
e 144 186
e 144 191
e 144 193
e 145 146
e 145 147
e 145 148
e 145 153
e 145 154
e 145 155
e 145 159
e 145 164
e 145 168
e 145 172
e 145 175
e 145 178
e 145 181
e 145 185
e 145 192
e 145 195
e 146 147
e 146 148
e 146 154
e 146 155
e 146 156
e 146 157
e 146 163
e 146 174
e 146 176
e 146 177
e 146 179
e 146 182
e 146 183
e 146 190
e 146 196
e 147 148
e 147 152
e 147 155
e 147 156
e 147 158
e 147 167
e 147 168
e 147 169
e 147 170
e 147 171
e 147 175
e 147 180
e 147 184
e 147 188
e 148 149
e 148 152
e 148 156
e 148 162
e 148 163
e 148 164
e 148 165
e 148 166
e 148 176
e 148 181
e 148 186
e 148 187
e 148 189
e 149 150
e 149 151
e 149 152
e 149 153
e 149 154
e 149 155
e 149 156
e 149 157
e 149 158
e 149 159
e 149 160
e 149 161
e 149 163
e 149 169
e 149 182
e 149 192
e 149 193
e 150 151
e 150 152
e 150 153
e 150 154
e 150 155
e 150 156
e 150 171
e 150 172
e 150 173
e 150 178
e 150 180
e 150 183
e 150 185
e 150 187
e 150 188
e 150 190
e 151 152
e 151 153
e 151 154
e 151 155
e 151 156
e 151 166
e 151 167
e 151 172
e 151 173
e 151 174
e 151 179
e 151 181
e 151 182
e 151 184
e 151 189
e 151 194
e 152 153
e 152 154
e 152 155
e 152 156
e 152 158
e 152 162
e 152 163
e 152 164
e 152 165
e 152 166
e 152 168
e 152 177
e 152 185
e 152 191
e 152 194
e 153 154
e 153 155
e 153 156
e 153 161
e 153 162
e 153 170
e 153 172
e 153 174
e 153 175
e 153 177
e 153 178
e 153 180
e 153 186
e 153 191
e 153 193
e 154 155
e 154 156
e 154 160
e 154 165
e 154 169
e 154 174
e 154 175
e 154 176
e 154 179
e 154 181
e 154 183
e 154 185
e 154 192
e 154 195
e 155 156
e 155 159
e 155 164
e 155 168
e 155 175
e 155 176
e 155 177
e 155 180
e 155 182
e 155 184
e 155 188
e 155 190
e 155 196
e 156 157
e 156 163
e 156 167
e 156 168
e 156 169
e 156 170
e 156 171
e 156 176
e 156 181
e 156 186
e 156 187
e 156 189
e 157 158
e 157 159
e 157 160
e 157 161
e 157 163
e 157 164
e 157 165
e 157 167
e 157 169
e 157 177
e 157 178
e 157 179
e 157 180
e 157 181
e 157 196
e 158 159
e 158 160
e 158 161
e 158 163
e 158 164
e 158 168
e 158 170
e 158 172
e 158 173
e 158 174
e 158 175
e 158 176
e 158 190
e 158 195
e 159 160
e 159 161
e 159 162
e 159 164
e 159 165
e 159 168
e 159 170
e 159 171
e 159 182
e 159 183
e 159 184
e 159 185
e 159 186
e 160 161
e 160 162
e 160 165
e 160 166
e 160 167
e 160 169
e 160 176
e 160 188
e 160 189
e 160 190
e 160 191
e 160 192
e 161 162
e 161 166
e 161 170
e 161 171
e 161 175
e 161 177
e 161 187
e 161 193
e 161 194
e 161 195
e 161 196
e 162 163
e 162 164
e 162 165
e 162 166
e 162 167
e 162 170
e 162 171
e 162 175
e 162 177
e 162 188
e 162 189
e 162 190
e 162 191
e 162 192
e 163 164
e 163 165
e 163 166
e 163 168
e 163 169
e 163 172
e 163 173
e 163 174
e 163 175
e 163 176
e 163 182
e 163 192
e 163 193
e 164 165
e 164 166
e 164 168
e 164 169
e 164 170
e 164 177
e 164 178
e 164 179
e 164 180
e 164 181
e 164 190
e 164 195
e 165 166
e 165 167
e 165 169
e 165 170
e 165 176
e 165 182
e 165 183
e 165 184
e 165 185
e 165 186
e 165 196
e 166 167
e 166 171
e 166 174
e 166 181
e 166 182
e 166 187
e 166 193
e 166 194
e 166 195
e 166 196
e 167 168
e 167 169
e 167 170
e 167 171
e 167 174
e 167 181
e 167 182
e 167 188
e 167 189
e 167 190
e 167 191
e 167 192
e 167 196
e 168 169
e 168 170
e 168 171
e 168 172
e 168 173
e 168 174
e 168 175
e 168 176
e 168 177
e 168 185
e 168 191
e 168 194
e 169 170
e 169 171
e 169 176
e 169 177
e 169 178
e 169 179
e 169 180
e 169 181
e 169 182
e 169 192
e 169 193
e 170 171
e 170 175
e 170 177
e 170 182
e 170 183
e 170 184
e 170 185
e 170 186
e 170 190
e 170 195
e 171 172
e 171 180
e 171 185
e 171 187
e 171 190
e 171 193
e 171 194
e 171 195
e 171 196
e 172 173
e 172 174
e 172 175
e 172 176
e 172 178
e 172 179
e 172 180
e 172 184
e 172 185
e 172 189
e 172 190
e 172 194
e 173 174
e 173 175
e 173 176
e 173 178
e 173 179
e 173 183
e 173 186
e 173 187
e 173 188
e 173 192
e 173 196
e 174 175
e 174 176
e 174 179
e 174 180
e 174 181
e 174 182
e 174 183
e 174 186
e 174 191
e 174 193
e 175 176
e 175 177
e 175 180
e 175 181
e 175 184
e 175 185
e 175 188
e 175 192
e 175 195
e 176 177
e 176 181
e 176 182
e 176 186
e 176 187
e 176 189
e 176 190
e 176 196
e 177 178
e 177 179
e 177 180
e 177 181
e 177 182
e 177 185
e 177 190
e 177 191
e 177 194
e 177 196
e 178 179
e 178 180
e 178 181
e 178 183
e 178 184
e 178 187
e 178 188
e 178 191
e 178 195
e 179 180
e 179 181
e 179 183
e 179 184
e 179 186
e 179 189
e 179 192
e 179 194
e 179 196
e 180 181
e 180 184
e 180 185
e 180 186
e 180 188
e 180 190
e 180 191
e 180 193
e 181 182
e 181 185
e 181 186
e 181 187
e 181 189
e 181 192
e 181 195
e 182 183
e 182 184
e 182 185
e 182 186
e 182 190
e 182 192
e 182 193
e 182 196
e 183 184
e 183 185
e 183 186
e 183 187
e 183 188
e 183 189
e 183 193
e 184 185
e 184 186
e 184 188
e 184 189
e 184 191
e 184 194
e 184 195
e 185 186
e 185 190
e 185 191
e 185 192
e 185 194
e 185 195
e 186 187
e 186 189
e 186 191
e 186 192
e 186 193
e 186 196
e 187 188
e 187 189
e 187 193
e 187 194
e 187 195
e 187 196
e 188 189
e 188 190
e 188 191
e 188 192
e 188 194
e 189 190
e 189 191
e 189 192
e 189 193
e 189 194
e 190 191
e 190 192
e 190 195
e 190 196
e 191 192
e 191 193
e 191 194
e 191 195
e 192 193
e 192 195
e 192 196
e 193 194
e 193 195
e 193 196
e 194 195
e 194 196
e 195 196
